DIM: 16
FLOW: 
0 1 1 1 1 1 1 1 1 1 1 1 1 1 0 1
1 0 1 1 1 1 1 1 1 1 1 1 1 1 0 1
1 1 0 1 1 1 1 1 1 1 1 1 1 1 0 1
1 1 1 0 7 7 7 7 7 7 7 1 1 1 0 1
1 1 1 7 0 21 21 21 21 21 21 2 2 2 1 1
1 1 1 7 21 0 21 21 21 21 21 2 2 2 1 1
1 1 1 7 21 21 0 21 21 21 21 2 2 2 1 1
1 1 1 7 21 21 21 0 21 21 21 2 2 2 1 1
1 1 1 7 21 21 21 21 0 21 21 2 2 2 1 1
1 1 1 7 21 21 21 21 21 0 21 2 2 2 1 1
1 1 1 7 21 21 21 21 21 21 0 2 2 2 1 1
1 1 1 1 2 2 2 2 2 2 2 0 6 6 4 1
1 1 1 1 2 2 2 2 2 2 2 6 0 6 4 1
1 1 1 1 2 2 2 2 2 2 2 6 6 0 4 1
0 0 0 0 1 1 1 1 1 1 1 4 4 4 0 0
1 1 1 1 1 1 1 1 1 1 1 1 1 1 0 0
DISTANCE: 
0 0 0 1 0 1 1 2 0 1 1 2 1 2 2 3
0 0 1 0 1 0 2 1 1 0 2 1 2 1 3 2
0 1 0 0 1 2 0 1 1 2 0 1 2 3 1 2
1 0 0 0 2 1 1 0 2 1 1 0 3 2 2 1
0 1 1 2 0 0 0 1 1 2 2 3 0 1 1 2
1 0 2 1 0 0 1 0 2 1 3 2 1 0 2 1
1 2 0 1 0 1 0 0 2 3 1 2 1 2 0 1
2 1 1 0 1 0 0 0 3 2 2 1 2 1 1 0
0 1 1 2 1 2 2 3 0 0 0 1 0 1 1 2
1 0 2 1 2 1 3 2 0 0 1 0 1 0 2 1
1 2 0 1 2 3 1 2 0 1 0 0 1 2 0 1
2 1 1 0 3 2 2 1 1 0 0 0 2 1 1 0
1 2 2 3 0 1 1 2 0 1 1 2 0 0 0 1
2 1 3 2 1 0 2 1 1 0 2 1 0 0 1 0
2 3 1 2 1 2 0 1 1 2 0 1 0 1 0 0
3 2 2 1 2 1 1 0 2 1 1 0 1 0 0 0
OPT_OBJ: 996
OPT_SOLUTION: 
13 9 10 15 3 11 4 16 12 7 8 5 6 2 1 14 